160
1000
242
9
486
160
609
514
407
30
64
758
726
1
367
136
288
328
632
163
471
439
813
139
670
391
787
418
212
128
786
622
27
50
274
83
772
59
22
391
101
356
278
56
552
879
298
397
234
582
825
170
925
216
667
686
120
433
326
295
411
310
177
441
850
295
417
314
213
380
613
931
32
3
139
399
274
10
83
393
670
142
121
89
230
143
462
25
23
99
364
868
917
290
555
319
121
338
174
11
568
62
361
39
404
261
320
607
561
569
432
488
57
383
308
214
51
478
990
766
154
330
136
617
978
118
512
231
784
593
240
68
355
75
43
936
455
481
830
183
529
680
545
879
504
199
950
445
242
124
172
174
132
633
57
69
623
234
567
864
636
188
